
Gurobi 10.0.3 (linux64, gurobi_cl) logging started Thu Nov  2 11:38:44 2023

Set parameter TimeLimit to value 3600
Set parameter LogFile to value "RCPSP_161.log"
Set parameter Threads to value 32

Gurobi 10.0.3 (linux64, gurobi_cl) logging started Thu Nov  9 11:43:34 2023

Set parameter Username
Set parameter TimeLimit to value 3600
Set parameter LogFile to value "RCPSP_161.log"
Set parameter Threads to value 32
Academic license - for non-commercial use only - expires 2024-10-30
Using license file /home/jrivera6/gurobi-licenses/v1003/compute-0-34/gurobi.lic

Gurobi Optimizer version 10.0.3 build v10.0.3rc0 (linux64)
Copyright (c) 2023, Gurobi Optimization, LLC

Read MPS format model from file RCPSP_161.mps
Reading time = 0.05 seconds
RCPSP_161: 5339 rows, 2080 columns, 16093 nonzeros

CPU model: Intel(R) Xeon(R) Gold 6130 CPU @ 2.10GHz, instruction set [SSE2|AVX|AVX2|AVX512]
Thread count: 32 physical cores, 32 logical processors, using up to 32 threads

Optimize a model with 5339 rows, 2080 columns and 16093 nonzeros
Model fingerprint: 0xa0e487a5
Variable types: 32 continuous, 2048 integer (2048 binary)
Coefficient statistics:
  Matrix range     [1e+00, 2e+02]
  Objective range  [1e+00, 1e+00]
  Bounds range     [1e+00, 1e+00]
  RHS range        [1e+00, 2e+02]
Presolve removed 2894 rows and 1080 columns
Presolve time: 0.17s
Presolved: 2445 rows, 1000 columns, 7554 nonzeros
Variable types: 31 continuous, 969 integer (969 binary)

Root relaxation: objective 4.900000e+01, 349 iterations, 0.00 seconds (0.00 work units)

    Nodes    |    Current Node    |     Objective Bounds      |     Work
 Expl Unexpl |  Obj  Depth IntInf | Incumbent    BestBd   Gap | It/Node Time

     0     0   49.00000    0   13          -   49.00000      -     -    0s
H    0     0                      67.0000000   49.00000  26.9%     -    0s
     0     0   49.00000    0   98   67.00000   49.00000  26.9%     -    0s
     0     0   49.00000    0  101   67.00000   49.00000  26.9%     -    0s
     0     0   49.00000    0   95   67.00000   49.00000  26.9%     -    0s
     0     0   53.92594    0   40   67.00000   53.92594  19.5%     -    0s
     0     0   53.92594    0   97   67.00000   53.92594  19.5%     -    1s
H    0     0                      66.0000000   53.92594  18.3%     -    1s
     0     0   53.92594    0   78   66.00000   53.92594  18.3%     -    1s
     0     0   53.92594    0   18   66.00000   53.92594  18.3%     -    1s
     0     0   53.92594    0   42   66.00000   53.92594  18.3%     -    1s
     0     0   53.92594    0   49   66.00000   53.92594  18.3%     -    1s
     0     0   54.32865    0   20   66.00000   54.32865  17.7%     -    1s
     0     0   54.32865    0   26   66.00000   54.32865  17.7%     -    1s
     0     0   54.73432    0   90   66.00000   54.73432  17.1%     -    2s
     0     0   54.73432    0   61   66.00000   54.73432  17.1%     -    2s
     0     0   54.85931    0   58   66.00000   54.85931  16.9%     -    2s
     0     0   54.85931    0   52   66.00000   54.85931  16.9%     -    2s
     0     0   54.94827    0   96   66.00000   54.94827  16.7%     -    2s
     0     0   54.94827    0   44   66.00000   54.94827  16.7%     -    2s
     0     0   54.94827    0   92   66.00000   54.94827  16.7%     -    2s
     0     0   54.94827    0  105   66.00000   54.94827  16.7%     -    2s
     0     0   54.94827    0   54   66.00000   54.94827  16.7%     -    2s
     0     0   54.94827    0   52   66.00000   54.94827  16.7%     -    2s
     0     0   54.94827    0  103   66.00000   54.94827  16.7%     -    3s
     0     0   54.94827    0   38   66.00000   54.94827  16.7%     -    3s
     0     0   54.94827    0   60   66.00000   54.94827  16.7%     -    3s
     0     0   54.94827    0   62   66.00000   54.94827  16.7%     -    3s
     0     0   54.94827    0   40   66.00000   54.94827  16.7%     -    3s
     0     2   54.94827    0   20   66.00000   54.94827  16.7%     -    4s
     6    10   58.00000    3   70   66.00000   55.88889  15.3%   126    5s
H  102    39                      64.0000000   58.00000  9.37%  68.8    7s
* 1105   556              31      64.0000000   61.00000  4.69%  16.6    9s
  1137   586   63.00000   25   19   64.00000   61.00000  4.69%  16.3   10s
  3889    11     cutoff   34        64.00000   61.50000  3.91%  17.6   15s

Cutting planes:
  Gomory: 7
  Cover: 126
  Implied bound: 332
  Clique: 7
  MIR: 366
  StrongCG: 2
  Inf proof: 33
  Zero half: 1
  RLT: 134
  Relax-and-lift: 121
  PSD: 2

Explored 4255 nodes (85444 simplex iterations) in 16.51 seconds (1.31 work units)
Thread count was 32 (of 32 available processors)

Solution count 4: 64 64 66 67 

Optimal solution found (tolerance 1.00e-04)
Best objective 6.399999999350e+01, best bound 6.399999999350e+01, gap 0.0000%

Wrote result file 'RCPSP_161.sol'

